[ti. 04. april 14:07:06 +0200 2023]  ./input/alternate_g_np/50-2-3.gcc
Set parameter Username
Academic license - for non-commercial use only - expires 2024-03-28
Set parameter TimeLimit to value 1800
Set parameter PreCrush to value 1
Set parameter LazyConstraints to value 1
Gurobi Optimizer version 10.0.1 build v10.0.1rc0 (linux64)

CPU model: AMD Ryzen 9 5950X 16-Core Processor, instruction set [SSE2|AVX|AVX2]
Thread count: 16 physical cores, 32 logical processors, using up to 32 threads

Optimize a model with 58 rows, 450 columns and 1250 nonzeros
Model fingerprint: 0xed214cbf
Variable types: 0 continuous, 450 integer (450 binary)
Coefficient statistics:
  Matrix range     [1e+00, 1e+00]
  Objective range  [4e+00, 1e+02]
  Bounds range     [1e+00, 1e+00]
  RHS range        [1e+00, 1e+00]
Presolve time: 0.00s
Presolved: 58 rows, 450 columns, 1250 nonzeros
Variable types: 0 continuous, 450 integer (450 binary)

Root relaxation: objective 2.643000e+03, 8 iterations, 0.00 seconds (0.00 work units)

    Nodes    |    Current Node    |     Objective Bounds      |     Work
 Expl Unexpl |  Obj  Depth IntInf | Incumbent    BestBd   Gap | It/Node Time

     0     0 2643.00000    0    8          - 2643.00000      -     -    0s
     0     0 2643.00000    0    -          - 2643.00000      -     -    0s
     0     0 2643.00000    0    -          - 2643.00000      -     -    0s
     0     0 2643.00000    0    8          - 2643.00000      -     -    0s
     0     0 1988.00000    0    -          - 1988.00000      -     -    0s
     0     0 1988.00000    0   18          - 1988.00000      -     -    0s
     0     0 1939.50000    0   28          - 1939.50000      -     -    0s
     0     0 1938.00000    0   39          - 1938.00000      -     -    0s
     0     0 1925.20886    0   42          - 1925.20886      -     -    0s
     0     0 1873.66667    0   47          - 1873.66667      -     -    0s
     0     0 1861.48239    0   53          - 1861.48239      -     -    0s
     0     0 1835.50053    0   71          - 1835.50053      -     -    0s
     0     0 1811.37078    0   81          - 1811.37078      -     -    0s
     0     0 1784.21227    0   98          - 1784.21227      -     -    0s
     0     0 1768.38953    0  113          - 1768.38953      -     -    0s
     0     0 1754.66355    0  127          - 1754.66355      -     -    0s
     0     0 1743.06363    0  127          - 1743.06363      -     -    0s
     0     0 1734.17190    0  133          - 1734.17190      -     -    0s
     0     0 1725.59289    0  141          - 1725.59289      -     -    0s
     0     0 1718.84179    0  148          - 1718.84179      -     -    0s
     0     0 1708.40449    0  153          - 1708.40449      -     -    0s
     0     0 1700.47729    0  149          - 1700.47729      -     -    0s
     0     0 1694.78009    0  160          - 1694.78009      -     -    0s
     0     0 1689.45736    0  162          - 1689.45736      -     -    0s
     0     0 1685.21290    0  169          - 1685.21290      -     -    0s
     0     0 1683.19011    0  170          - 1683.19011      -     -    0s
     0     0 1677.92481    0  174          - 1677.92481      -     -    0s
     0     0 1673.85676    0  181          - 1673.85676      -     -    0s
     0     0 1669.55240    0  177          - 1669.55240      -     -    0s
     0     0 1666.72151    0  182          - 1666.72151      -     -    0s
     0     0 1664.73011    0  167          - 1664.73011      -     -    0s
     0     0 1663.32893    0  191          - 1663.32893      -     -    0s
     0     0 1662.72862    0  180          - 1662.72862      -     -    0s
     0     0 1662.24079    0  198          - 1662.24079      -     -    0s
     0     0 1661.35347    0  189          - 1661.35347      -     -    0s
     0     0 1661.19369    0  189          - 1661.19369      -     -    0s
H    0     0                    1661.0000000 1661.19369  0.01%     -    0s
     0     0 1661.00000    0   40 1661.00000 1661.00000  0.00%     -    0s

Cutting planes:
  User: 211
  MIR: 2
  Lazy constraints: 66

Explored 1 nodes (4798 simplex iterations) in 0.17 seconds (0.33 work units)
Thread count was 32 (of 32 available processors)

Solution count 1: 1661 

Optimal solution found (tolerance 1.00e-04)
Best objective 1.661000000000e+03, best bound 1.661000000000e+03, gap 0.0000%

User-callback calls 299, time in user-callback 0.01 sec
Minimal separator inequalities added: 224
Indegree inequalities added: 281
Passed solution check
[ti. 04. april 14:07:06 +0200 2023]  done

